bacp/param_dec/inst-397-1-1058338582.eprime-param
language ESSENCE' 1.0

letting n_courses be 141
letting n_periods be 21
letting prerequisite_RelationAsSet_Explicit_1 be
        [3, 3, 5, 5, 6, 6, 7, 7, 7, 7, 7, 7, 8, 9, 9, 9, 9, 10, 10, 10, 10, 11, 11, 12, 13, 13, 13, 13, 14, 15, 15, 15,
         15, 15, 16, 16, 16, 16, 16, 17, 17, 18, 19, 19, 19, 20, 21, 21, 22, 22, 22, 23, 24, 24, 24, 25, 26, 26, 26, 27,
         27, 27, 28, 28, 28, 28, 28, 29, 29, 30, 31, 31, 31, 31, 32, 32, 32, 32, 32, 32, 33, 34, 35, 35, 38, 38, 38, 38,
         39, 39, 40, 41, 44, 45, 47, 47, 49, 49, 50, 52, 52, 53, 53, 54, 54, 55, 56, 57, 58, 59, 59, 62, 63, 65, 65, 66,
         66, 66, 66, 67, 67, 67, 69, 69, 69, 69, 70, 70, 71, 71, 72, 73, 73, 75, 75, 77, 78, 79, 82, 82, 83, 83, 83, 84,
         85, 86, 88, 92, 94, 94, 95, 95, 97, 99, 99, 100, 100, 100, 101, 102, 103, 104, 104, 104;
             int(1..164)]
letting prerequisite_RelationAsSet_Explicit_2 be
        [72, 87, 69, 103, 65, 85, 60, 63, 79, 81, 84, 101, 51, 64, 82, 85, 97, 44, 46, 83, 91, 60, 69, 58, 56, 60, 66,
         86, 63, 71, 78, 91, 96, 99, 48, 56, 58, 69, 80, 55, 101, 67, 47, 78, 92, 100, 49, 100, 47, 54, 99, 45, 79, 94,
         95, 87, 59, 62, 93, 51, 58, 86, 88, 89, 90, 98, 104, 52, 64, 100, 68, 73, 82, 96, 52, 74, 76, 77, 81, 97, 61,
         77, 50, 102, 53, 57, 68, 81, 70, 75, 71, 90, 140, 137, 131, 141, 132, 133, 124, 107, 114, 112, 125, 106, 126,
         108, 106, 116, 123, 119, 136, 106, 110, 123, 138, 127, 134, 138, 139, 108, 120, 137, 119, 120, 125, 139, 126,
         135, 128, 129, 138, 125, 127, 105, 109, 123, 107, 140, 109, 114, 113, 130, 133, 108, 139, 122, 128, 121, 133,
         138, 115, 135, 117, 128, 138, 118, 133, 141, 122, 130, 111, 111, 125, 134;
             int(1..164)]
letting course_load_Function1D be
        [6, 6, 4, 2, 4, 8, 3, 6, 2, 4, 3, 3, 8, 3, 3, 6, 9, 6, 8, 3, 3, 5, 4, 8, 7, 4, 8, 6, 2, 9, 5, 6, 2, 6, 8, 3, 5,
         3, 5, 9, 8, 7, 4, 2, 6, 5, 3, 5, 2, 3, 3, 9, 8, 4, 3, 4, 5, 6, 2, 7, 8, 5, 3, 7, 7, 2, 7, 5, 9, 7, 6, 3, 5, 2,
         7, 9, 8, 3, 9, 4, 8, 8, 9, 3, 7, 6, 7, 6, 7, 5, 5, 9, 4, 5, 4, 3, 6, 8, 4, 4, 4, 4, 5, 5, 2, 6, 8, 3, 3, 3, 2,
         6, 9, 5, 6, 6, 8, 3, 3, 2, 3, 4, 9, 2, 8, 8, 6, 3, 2, 7, 9, 3, 4, 2, 4, 3, 3, 7, 2, 5, 4;
             int(1..141)]
letting load_per_period_ub be 35
letting load_per_period_lb be 7
letting courses_per_period_ub be 9
letting courses_per_period_lb be 5
letting fin1 be 164
letting fin2 be 141
letting fin3 be 9
